unsat
(:eliminated-applications 2
 :eliminated-vars         1
 :max-memory              18.06
 :memory                  17.92
 :nlsat-conflicts         4
 :nlsat-learned-added     3
 :nlsat-propagations      12
 :nlsat-stages            4
 :num-allocs              5916
 :rlimit-count            2368
 :time                    0.00
 :total-time              0.01)
